500
[59,65,71,91,95,117,120,122,133,135,138,148,150,171,173,180,184,186,192,193,196,201,221,222,226,229,238,239,242,246,247,253,259,260,265,266,275,286,345,346,350,352,362,366,376,395]
[1,1,2,1,2,1,1,1,1,1,1,1,1,1,1,1,1,1,2,1,1,1,1,1,1,1,1,2,1,1,1,1,1,1,1,1,1,1,1,1,1,1,1,1,1,1]
